NAME : bi_primero7.tsp.tour
TYPE : TOUR
DIMENSION : 7
SOLUTION: 21.132750135027084
TOUR_SECTION
0, 4, 6, 2, 3, 5, 1, 0
1.190672079121705 - 0,4
1.0384603988597738 - 4,6
4.267551991481771 - 6,2
0.8006247560499267 - 2,3
7.904960467959346 - 3,5
0.9972462083156799 - 5,1
4.933234233238882 - 1,0
EOF